qbf_easy_train/easy_2198_SAT.qdimacs
p cnf 30 81
a 16 27 0
e 1 2 3 4 5 6 7 8 9 10 11 12 13 14 15 17 18 19 20 21 22 23 24 25 26 28 29 30 0
-3 -1 0
-3 2 0
1 -2 3 0
-5 4 0
-5 4 0
-4 5 0
-9 7 0
-9 8 0
-7 -8 9 0
10 -6 0
10 -9 0
6 9 -10 0
11 5 0
11 10 0
-5 -10 -11 0
-12 -3 0
-12 11 0
3 -11 12 0
-2 4 -13 0
2 -4 -13 0
-2 -4 13 0
2 4 13 0
-15 14 0
-15 8 0
-14 -8 15 0
17 14 0
17 16 0
-14 -16 -17 0
18 -8 0
18 -6 0
8 6 -18 0
-17 -18 -19 0
17 18 -19 0
-17 18 19 0
17 -18 19 0
-6 19 -20 0
6 -19 -20 0
-6 -19 20 0
6 19 20 0
-15 20 -21 0
15 -20 -21 0
-15 -20 21 0
15 20 21 0
-13 -21 -22 0
13 21 -22 0
-13 21 22 0
13 -21 22 0
-23 2 0
-23 -16 0
-2 16 23 0
24 23 0
24 23 0
-23 -24 0
-17 9 -25 0
17 -9 -25 0
-17 -9 25 0
17 9 25 0
-26 24 0
-26 25 0
-24 -25 26 0
-27 -22 0
-27 -26 0
22 26 27 0
-28 -12 0
-28 27 0
12 -27 28 0
7 8 -29 0
-7 -8 -29 0
7 -8 29 0
-7 8 29 0
30 -28 0
30 -29 0
28 29 -30 0
-23 -6 29 0
-10 29 19 0
9 -17 14 -24 -16 -1 0
24 -3 19 18 11 -22 15 0
16 -29 -14 9 15 -10 1 -26 0
-13 15 -10 -24 7 -27 29 0
-23 26 29 27 0
30 0
