sat_easy_train/easy_2198_SAT.dimacs
p cnf 146 502
1 2 -3 0
-1 -2 -3 0
1 -2 3 0
-1 2 3 0
-6 -4 0
-6 5 0
4 -5 6 0
-7 3 0
-7 6 0
-3 -6 7 0
10 -8 0
10 9 0
8 -9 -10 0
12 -10 0
12 11 0
10 -11 -12 0
-14 12 0
-14 -13 0
-12 13 14 0
-15 -14 0
-15 11 0
14 -11 15 0
-15 -12 -16 0
15 12 -16 0
-15 12 16 0
15 -12 16 0
17 -14 0
17 16 0
14 -16 -17 0
17 -8 -18 0
-17 8 -18 0
17 8 18 0
-17 -8 18 0
-7 -18 -19 0
7 18 -19 0
-7 18 19 0
7 -18 19 0
21 -1 0
21 -20 0
1 20 -21 0
-21 -8 -22 0
21 8 -22 0
-21 8 22 0
21 -8 22 0
23 -19 0
23 -22 0
19 22 -23 0
-25 6 0
-25 -24 0
-6 24 25 0
26 22 0
26 -25 0
-22 25 -26 0
-27 16 0
-27 15 0
-16 -15 27 0
27 28 -29 0
-27 -28 -29 0
27 -28 29 0
-27 28 29 0
30 -26 0
30 -29 0
26 29 -30 0
31 -30 0
31 8 0
30 -8 -31 0
-32 -11 0
-32 -25 0
11 25 32 0
-33 -12 0
-33 32 0
12 -32 33 0
34 31 0
34 -33 0
-31 33 -34 0
-24 4 -35 0
24 -4 -35 0
-24 -4 35 0
24 4 35 0
37 1 0
37 -13 0
-1 13 -37 0
38 -36 0
38 37 0
36 -37 -38 0
1 -38 -39 0
-1 38 -39 0
1 38 39 0
-1 -38 39 0
40 -9 0
40 39 0
9 -39 -40 0
35 -40 -41 0
-35 40 -41 0
35 40 41 0
-35 -40 41 0
-42 5 0
-42 -12 0
-5 12 42 0
43 41 0
43 -42 0
-41 42 -43 0
44 34 0
44 -43 0
-34 43 -44 0
12 13 -45 0
-12 -13 -45 0
12 -13 45 0
-12 13 45 0
45 -37 -46 0
-45 37 -46 0
45 37 46 0
-45 -37 46 0
-46 11 -47 0
46 -11 -47 0
-46 -11 47 0
46 11 47 0
36 6 -48 0
-36 -6 -48 0
36 -6 48 0
-36 6 48 0
49 16 0
49 -48 0
-16 48 -49 0
50 -47 0
50 -49 0
47 49 -50 0
51 10 0
51 -45 0
-10 45 -51 0
45 21 -52 0
-45 -21 -52 0
45 -21 52 0
-45 21 52 0
53 -52 0
53 12 0
52 -12 -53 0
54 -51 0
54 -53 0
51 53 -54 0
50 54 -55 0
-50 -54 -55 0
50 -54 55 0
-50 54 55 0
56 -8 0
56 -1 0
8 1 -56 0
57 22 0
57 -56 0
-22 56 -57 0
-6 -57 -58 0
6 57 -58 0
-6 57 58 0
6 -57 58 0
-60 -59 0
-60 7 0
59 -7 60 0
-61 60 0
-61 -18 0
-60 18 61 0
62 -3 0
62 56 0
3 -56 -62 0
-8 25 -63 0
8 -25 -63 0
-8 -25 63 0
8 25 63 0
64 62 0
64 63 0
-62 -63 -64 0
-65 61 0
-65 64 0
-61 -64 65 0
-66 13 0
-66 37 0
-13 -37 66 0
-69 5 0
-69 68 0
-5 -68 69 0
-67 69 -70 0
67 -69 -70 0
-67 -69 70 0
67 69 70 0
71 70 0
71 -24 0
-70 24 -71 0
72 -66 0
72 71 0
66 -71 -72 0
73 9 0
73 72 0
-9 -72 -73 0
26 73 -74 0
-26 -73 -74 0
26 -73 74 0
-26 73 74 0
75 65 0
75 74 0
-65 -74 -75 0
-77 48 0
-77 15 0
-48 -15 77 0
67 -12 -78 0
-67 12 -78 0
67 12 78 0
-67 -12 78 0
-79 -5 0
-79 -78 0
5 78 79 0
80 -77 0
80 79 0
77 -79 -80 0
-81 80 0
-81 66 0
-80 -66 81 0
-76 81 -82 0
76 -81 -82 0
-76 -81 82 0
76 81 82 0
-47 72 -83 0
47 -72 -83 0
-47 -72 83 0
47 72 83 0
84 38 0
84 18 0
-38 -18 -84 0
-85 -83 0
-85 84 0
83 -84 85 0
-86 -82 0
-86 85 0
82 -85 86 0
-87 -75 0
-87 86 0
75 -86 87 0
88 58 0
88 -87 0
-58 87 -88 0
-89 -72 0
-89 62 0
72 -62 89 0
8 2 -90 0
-8 -2 -90 0
8 -2 90 0
-8 2 90 0
-89 -90 -91 0
89 90 -91 0
-89 90 91 0
89 -90 91 0
92 -88 0
92 -91 0
88 91 -92 0
-93 55 0
-93 92 0
-55 -92 93 0
94 -4 0
94 -13 0
4 13 -94 0
95 -94 0
95 59 0
94 -59 -95 0
-96 -95 0
-96 -25 0
95 25 96 0
-97 -19 0
-97 96 0
19 -96 97 0
59 -70 -98 0
-59 70 -98 0
59 70 98 0
-59 -70 98 0
97 98 -99 0
-97 -98 -99 0
97 -98 99 0
-97 98 99 0
-100 93 0
-100 99 0
-93 -99 100 0
-44 100 -101 0
44 -100 -101 0
-44 -100 101 0
44 100 101 0
-102 -32 0
-102 32 0
-103 102 0
-103 28 0
-102 -28 103 0
-101 -103 -104 0
101 103 -104 0
-101 103 104 0
101 -103 104 0
39 95 -105 0
-39 -95 -105 0
39 -95 105 0
-39 95 105 0
-5 2 -106 0
5 -2 -106 0
-5 -2 106 0
5 2 106 0
-107 105 0
-107 106 0
-105 -106 107 0
-108 -37 0
-108 -13 0
37 13 108 0
8 13 -109 0
-8 -13 -109 0
8 -13 109 0
-8 13 109 0
110 71 0
110 109 0
-71 -109 -110 0
-111 5 0
-111 32 0
-5 -32 111 0
-110 111 -112 0
110 -111 -112 0
-110 -111 112 0
110 111 112 0
-113 108 0
-113 112 0
-108 -112 113 0
114 -107 0
114 113 0
107 -113 -114 0
115 -104 0
115 114 0
104 -114 -115 0
116 23 0
116 -115 0
-23 115 -116 0
49 71 -117 0
-49 -71 -117 0
49 -71 117 0
-49 71 117 0
118 -66 0
118 -117 0
66 117 -118 0
-119 7 0
-119 1 0
-7 -1 119 0
-120 4 0
-120 -25 0
-4 25 120 0
-121 -3 0
-121 -120 0
3 120 121 0
119 -121 -122 0
-119 121 -122 0
119 121 122 0
-119 -121 122 0
123 -118 0
123 122 0
118 -122 -123 0
20 70 -124 0
-20 -70 -124 0
20 -70 124 0
-20 70 124 0
-124 51 -125 0
124 -51 -125 0
-124 -51 125 0
124 51 125 0
68 -94 -126 0
-68 94 -126 0
68 94 126 0
-68 -94 126 0
-127 51 0
-127 126 0
-51 -126 127 0
-125 -127 -128 0
125 127 -128 0
-125 127 128 0
125 -127 128 0
-70 22 -129 0
70 -22 -129 0
-70 -22 129 0
70 22 129 0
130 49 0
130 129 0
-49 -129 -130 0
-131 128 0
-131 -130 0
-128 130 131 0
132 -9 0
132 14 0
9 -14 -132 0
14 -132 -133 0
-14 132 -133 0
14 132 133 0
-14 -132 133 0
-131 133 -134 0
131 -133 -134 0
-131 -133 134 0
131 133 134 0
-135 32 0
-135 -66 0
-32 66 135 0
136 135 0
136 3 0
-135 -3 -136 0
-134 -136 -137 0
134 136 -137 0
-134 136 137 0
134 -136 137 0
-138 -24 0
-138 94 0
24 -94 138 0
-69 28 -139 0
69 -28 -139 0
-69 -28 139 0
69 28 139 0
-140 -95 0
-140 90 0
95 -90 140 0
-141 -5 0
-141 -140 0
5 140 141 0
-142 139 0
-142 141 0
-139 -141 142 0
-138 142 -143 0
138 -142 -143 0
-138 -142 143 0
138 142 143 0
137 143 -144 0
-137 -143 -144 0
137 -143 144 0
-137 143 144 0
123 -144 -145 0
-123 144 -145 0
123 144 145 0
-123 -144 145 0
116 145 -146 0
-116 -145 -146 0
116 -145 146 0
-116 145 146 0
101 -25 -45 -58 24 84 0
111 -88 0
-120 -119 0
56 32 0
-63 14 41 -110 102 0
58 -141 0
-9 -51 -64 -39 0
17 -55 52 -138 96 7 0
-15 -75 -47 24 53 0
53 -107 49 101 -118 0
83 128 -18 0
-112 79 -115 -131 -30 2 0
-22 82 144 45 -65 0
93 -1 57 -121 0
-55 -84 -140 -83 95 0
-23 46 -112 -123 -63 133 0
25 123 0
136 91 0
-131 57 -60 61 -90 50 0
73 -85 0
74 -78 32 0
67 136 130 54 0
-22 125 -79 2 57 81 0
110 -33 15 -133 120 28 0
12 -24 0
-96 -111 141 120 0
31 -133 33 0
-8 -75 -59 72 0
-106 -90 84 0
-12 91 -22 0
-66 138 63 -132 0
129 88 0
9 -123 -82 0
-40 -18 -142 -55 0
113 69 -62 67 -22 16 0
75 -65 -123 71 0
-139 83 -63 107 -77 0
59 -67 0
-69 -65 88 84 3 0
27 145 73 -138 0
107 90 -39 -32 0
-120 136 0
50 -146 116 -134 75 0
-56 -143 -4 -13 133 0
12 -39 29 -52 55 -143 0
-26 -79 37 92 -87 39 0
112 -122 0
20 125 -12 63 0
-62 30 -133 41 0
22 44 84 -6 0
100 96 0
-3 4 0
-77 -98 0
106 -131 -130 0
84 -93 -51 0
-137 74 122 -25 0
-75 -21 0
-103 11 -12 68 0
-28 3 110 -62 0
134 -46 125 -53 -59 0
-50 -124 -44 0
20 96 -2 0
87 78 100 0
-127 96 -81 6 75 0
144 -137 -133 107 21 136 0
146 0
